letting n_nurses=25
letting n_days=7
letting n_shift_types=4
letting max_covers=18
letting t_covers=87
letting covers=[18,0,3,0,16,2,1,0,3,14,0,0,3,1,0,0,2,3,0,0,3,18,0,0,0,0,0,0]
letting prefes=[2,1,1,1,4,1,4,4,4,1,4,4,2,1,1,1,1,4,4,1,4,1,4,4,1,4,4,1,1,1,1,3,4,4,4,4,4,4,4,4,1,1,1,3,1,4,4,1,4,4,4,4,1,4,4,1,1,1,1,1,3,1,4,4,3,1,4,4,1,1,1,1,4,4,4,4,3,1,4,4,4,4,4,4,1,1,2,3,4,4,4,4,4,4,4,4,1,1,2,3,4,4,4,4,4,4,4,4,4,4,4,4,1,1,1,3,4,4,1,4,4,4,1,4,1,1,1,3,1,1,1,1,4,4,1,4,1,1,1,1,2,4,2,1,4,4,4,4,4,4,4,4,2,4,2,1,1,4,4,1,4,4,4,4,1,4,4,1,1,1,1,1,3,4,1,4,3,4,1,4,1,1,1,1,1,1,4,1,3,4,1,4,1,1,4,1,1,4,1,1,4,1,4,4,4,1,4,4,1,4,1,1,1,4,4,1,4,1,4,4,1,4,4,1,1,1,1,1,4,4,4,4,4,4,4,4,1,1,1,1,1,4,4,1,4,4,4,4,1,4,4,1,1,1,1,1,4,4,4,1,4,4,4,1,1,1,1,1,1,4,4,1,4,4,4,1,1,4,4,1,1,4,1,3,3,4,4,1,3,4,4,1,1,4,1,3,1,4,4,1,3,4,4,1,1,4,4,1,2,1,1,1,4,4,4,4,4,4,4,4,2,1,1,1,1,4,4,1,4,4,4,4,1,4,4,1,1,1,1,1,4,4,4,1,4,4,4,1,1,1,1,1,1,4,1,1,4,4,4,1,1,4,1,1,1,4,1,1,4,4,4,4,4,4,4,4,1,4,1,1,1,4,4,1,4,4,4,4,1,4,4,1,1,1,1,1,4,4,4,4,4,4,4,4,1,1,1,1,1,4,4,1,4,4,4,4,1,4,4,1,1,1,2,1,3,4,4,4,3,4,4,4,1,1,2,1,1,4,4,1,3,4,4,4,1,4,4,1,1,1,1,1,4,4,1,4,4,4,1,4,1,1,1,1,1,1,1,1,4,4,1,4,1,1,1,1,2,4,1,1,4,4,1,4,4,4,1,4,2,4,1,1,4,4,4,4,4,4,1,4,4,4,4,4,1,1,2,1,4,4,4,4,4,4,4,4,1,1,2,1,1,4,4,1,4,4,4,4,1,4,4,1,1,1,2,1,3,1,4,4,3,1,4,4,1,1,2,1,4,4,1,4,3,1,4,4,4,4,1,4,2,1,1,4,4,4,4,1,4,4,4,1,2,1,1,4,1,4,4,1,4,4,4,1,1,4,4,1,1,1,1,1,4,4,4,4,4,4,4,4,1,1,1,1,1,4,4,1,4,4,4,4,1,4,4,1,1,1,1,1,4,1,1,4,4,1,1,4,1,1,1,1,4,1,4,4,4,1,1,4,4,1,4,4,1,1,1,1,4,4,4,1,4,4,4,1,1,1,1,1,1,4,4,1,4,4,4,1,1,4,4,1,1,1,1,1,4,4,4,4,4,4,4,4,1,1,1,1,1,1,1,1,4,4,4,4,1,1,1,1]
letting ub =  315
